
Gurobi 9.0.1 (linux64) logging started Thu Apr 30 05:57:55 2020

Gurobi Optimizer version 9.0.1 build v9.0.1rc0 (linux64)
Optimize a model with 932 rows, 990 columns and 7056 nonzeros
Model fingerprint: 0xc61de335
Variable types: 0 continuous, 990 integer (980 binary)
Coefficient statistics:
  Matrix range     [1e+00, 5e+00]
  Objective range  [3e+00, 1e+02]
  Bounds range     [1e+00, 1e+00]
  RHS range        [1e+00, 1e+00]

User MIP start produced solution with objective 501 (0.00s)
Loaded user MIP start with objective 501

Presolve removed 448 rows and 432 columns
Presolve time: 0.07s
Presolved: 484 rows, 558 columns, 4334 nonzeros
Variable types: 0 continuous, 558 integer (558 binary)

Root relaxation: objective 4.144493e+02, 259 iterations, 0.01 seconds

    Nodes    |    Current Node    |     Objective Bounds      |     Work
 Expl Unexpl |  Obj  Depth IntInf | Incumbent    BestBd   Gap | It/Node Time

     0     0  414.44928    0  124  501.00000  414.44928  17.3%     -    0s
     0     0  441.17458    0  143  501.00000  441.17458  11.9%     -    0s
     0     0  441.21837    0  150  501.00000  441.21837  11.9%     -    0s
     0     0  448.79104    0  156  501.00000  448.79104  10.4%     -    0s
     0     0  449.88089    0  153  501.00000  449.88089  10.2%     -    0s
     0     0  450.11212    0  163  501.00000  450.11212  10.2%     -    0s
     0     0  450.12652    0  162  501.00000  450.12652  10.2%     -    0s
     0     0  457.48964    0  162  501.00000  457.48964  8.68%     -    0s
     0     0  458.42487    0  157  501.00000  458.42487  8.50%     -    0s
     0     0  458.46835    0  156  501.00000  458.46835  8.49%     -    0s
     0     0  458.46835    0  158  501.00000  458.46835  8.49%     -    0s
     0     0  464.72294    0  147  501.00000  464.72294  7.24%     -    0s
     0     0  465.96370    0  139  501.00000  465.96370  6.99%     -    0s
     0     0  466.36841    0  150  501.00000  466.36841  6.91%     -    0s
     0     0  466.49529    0  148  501.00000  466.49529  6.89%     -    0s
     0     0  466.56196    0  145  501.00000  466.56196  6.87%     -    0s
     0     0  467.11492    0  123  501.00000  467.11492  6.76%     -    0s
     0     0  467.63164    0  126  501.00000  467.63164  6.66%     -    0s
     0     0  467.64464    0  128  501.00000  467.64464  6.66%     -    0s
     0     0  469.32298    0  155  501.00000  469.32298  6.32%     -    0s
     0     0  469.51371    0  145  501.00000  469.51371  6.28%     -    0s
     0     0  469.62342    0  151  501.00000  469.62342  6.26%     -    0s
     0     0  470.74143    0  166  501.00000  470.74143  6.04%     -    0s
     0     0  470.81701    0  164  501.00000  470.81701  6.02%     -    0s
     0     0  470.82813    0  120  501.00000  470.82813  6.02%     -    0s
     0     0  470.83722    0  163  501.00000  470.83722  6.02%     -    0s
     0     0  470.83722    0  156  501.00000  470.83722  6.02%     -    0s
     0     0  470.95313    0  110  501.00000  470.95313  6.00%     -    0s
     0     0  470.95313    0  145  501.00000  470.95313  6.00%     -    0s
     0     0  470.95313    0   85  501.00000  470.95313  6.00%     -    0s
     0     0  471.37500    0  118  501.00000  471.37500  5.91%     -    0s
     0     0  471.55446    0  120  501.00000  471.55446  5.88%     -    0s
     0     0  472.81692    0  129  501.00000  472.81692  5.63%     -    0s
     0     0  473.47887    0  127  501.00000  473.47887  5.49%     -    0s
     0     0  473.47887    0  128  501.00000  473.47887  5.49%     -    0s
     0     0  474.65882    0  122  501.00000  474.65882  5.26%     -    1s
     0     0  475.31678    0  125  501.00000  475.31678  5.13%     -    1s
     0     0  475.36908    0  126  501.00000  475.36908  5.12%     -    1s
     0     0  475.37031    0  127  501.00000  475.37031  5.12%     -    1s
     0     0  475.43031    0  123  501.00000  475.43031  5.10%     -    1s
     0     0  475.43471    0  124  501.00000  475.43471  5.10%     -    1s
     0     0  475.62663    0  131  501.00000  475.62663  5.06%     -    1s
     0     0  475.62663    0  100  501.00000  475.62663  5.06%     -    1s
     0     0  475.98814    0   91  501.00000  475.98814  4.99%     -    1s
     0     0  475.98814    0  115  501.00000  475.98814  4.99%     -    1s
     0     0  475.98814    0  117  501.00000  475.98814  4.99%     -    1s
     0     0  475.98814    0  125  501.00000  475.98814  4.99%     -    1s
     0     0  475.98814    0  117  501.00000  475.98814  4.99%     -    1s
     0     0  477.14862    0  117  501.00000  477.14862  4.76%     -    1s
     0     0  479.29375    0  115  501.00000  479.29375  4.33%     -    1s
     0     0  479.82979    0  114  501.00000  479.82979  4.23%     -    1s
     0     0  480.06000    0  111  501.00000  480.06000  4.18%     -    1s
     0     0  480.08696    0  115  501.00000  480.08696  4.17%     -    1s
     0     0  480.91500    0  116  501.00000  480.91500  4.01%     -    1s
     0     0  481.07372    0  118  501.00000  481.07372  3.98%     -    1s
     0     0  481.33333    0  118  501.00000  481.33333  3.93%     -    1s
     0     0  481.50000    0  123  501.00000  481.50000  3.89%     -    1s
     0     0  481.59843    0  119  501.00000  481.59843  3.87%     -    1s
     0     0  481.61921    0  122  501.00000  481.61921  3.87%     -    1s
     0     0  481.80781    0  127  501.00000  481.80781  3.83%     -    1s
     0     0  481.92118    0  118  501.00000  481.92118  3.81%     -    1s
     0     0  481.96090    0  124  501.00000  481.96090  3.80%     -    1s
     0     0  481.96090    0  128  501.00000  481.96090  3.80%     -    1s
     0     0  481.96090    0  103  501.00000  481.96090  3.80%     -    1s
     0     2  482.16367    0  103  501.00000  482.16367  3.76%     -    1s

Cutting planes:
  Gomory: 2
  MIR: 17
  GUB cover: 2
  Zero half: 26

Explored 40 nodes (4481 simplex iterations) in 1.59 seconds
Thread count was 1 (of 40 available processors)

Solution count 1: 501 

Optimal solution found (tolerance 1.00e-04)
Best objective 5.010000000000e+02, best bound 5.010000000000e+02, gap 0.0000%

User-callback calls 922, time in user-callback 0.00 sec
